# Solution for model GNN
# Objective value = 1.7057547844443630e+00
A[0,0] 1
A[0,1] 1
A[0,2] 1
A[0,3] 1
A[1,0] 1
A[1,1] 1
A[1,2] 1
A[1,3] 1
A[2,0] 1
A[2,1] 1
A[2,2] 1
A[2,3] 1
A[3,0] 1
A[3,1] 1
A[3,2] 1
A[3,3] 1
x[0,0] 1
x[0,1] 0
x[0,2] 0
x[0,3] 0
x[0,4] 0
x[0,5] 0
x[0,6] 0
x[0,7] 0
x[0,8] 1
x[0,9] 0
x[0,10] 0
x[0,11] 0
x[0,12] 0
x[0,13] 0
x[0,14] 1
x[0,15] 0
x[0,16] 0
x[0,17] 1
x[0,18] 0
x[0,19] 0
x[0,20] 0
x[1,0] 1
x[1,1] 0
x[1,2] 0
x[1,3] 0
x[1,4] 1
x[1,5] 0
x[1,6] 1
x[1,7] 0
x[1,8] 0
x[1,9] 0
x[1,10] 0
x[1,11] 0
x[1,12] 0
x[1,13] 0
x[1,14] 1
x[1,15] 0
x[1,16] 0
x[1,17] 1
x[1,18] 0
x[1,19] 0
x[1,20] 0
x[2,0] 1
x[2,1] 0
x[2,2] 0
x[2,3] 0
x[2,4] 0
x[2,5] 0
x[2,6] 1
x[2,7] 0
x[2,8] 0
x[2,9] 0
x[2,10] 0
x[2,11] 0
x[2,12] 0
x[2,13] 0
x[2,14] 1
x[2,15] 0
x[2,16] 0
x[2,17] 1
x[2,18] 0
x[2,19] 0
x[2,20] 0
x[3,0] 1
x[3,1] 0
x[3,2] 0
x[3,3] 0
x[3,4] 1
x[3,5] 0
x[3,6] 0
x[3,7] 0
x[3,8] 1
x[3,9] 0
x[3,10] 0
x[3,11] 0
x[3,12] 0
x[3,13] 0
x[3,14] 1
x[3,15] 0
x[3,16] 0
x[3,17] 1
x[3,18] 0
x[3,19] 0
x[3,20] 0
c[0,0,0] 0
c[0,0,1] 0
c[0,0,2] 0
c[0,0,3] 0
c[0,0,4] 0
c[0,0,5] 0
c[0,0,6] 0
c[0,0,7] 0
c[0,0,8] 0
c[0,0,9] 0
c[0,0,10] 0
c[0,0,11] 0
c[0,0,12] 0
c[0,0,13] 0
c[0,0,14] 0
c[0,0,15] 0
c[0,0,16] 0
c[0,0,17] 0
c[0,0,18] 0
c[0,0,19] 0
c[0,0,20] 0
c[0,0,21] 0
c[0,0,22] 0
c[0,0,23] 0
c[0,0,24] 1
c[0,1,0] 0
c[0,1,1] 0
c[0,1,2] 0
c[0,1,3] 0
c[0,1,4] 0
c[0,1,5] 0
c[0,1,6] 0
c[0,1,7] 0
c[0,1,8] 0
c[0,1,9] 0
c[0,1,10] 0
c[0,1,11] 0
c[0,1,12] 0
c[0,1,13] 0
c[0,1,14] 0
c[0,1,15] 0
c[0,1,16] 0
c[0,1,17] 0
c[0,1,18] 0
c[0,1,19] 0
c[0,1,20] 0
c[0,1,21] 0
c[0,1,22] 0
c[0,1,23] 0
c[0,1,24] 1
c[0,2,0] 0
c[0,2,1] 0
c[0,2,2] 0
c[0,2,3] 0
c[0,2,4] 0
c[0,2,5] 0
c[0,2,6] 0
c[0,2,7] 0
c[0,2,8] 0
c[0,2,9] 0
c[0,2,10] 0
c[0,2,11] 0
c[0,2,12] 0
c[0,2,13] 0
c[0,2,14] 0
c[0,2,15] 0
c[0,2,16] 0
c[0,2,17] 0
c[0,2,18] 0
c[0,2,19] 0
c[0,2,20] 0
c[0,2,21] 0
c[0,2,22] 0
c[0,2,23] 0
c[0,2,24] 1
c[0,3,0] 0
c[0,3,1] 0
c[0,3,2] 0
c[0,3,3] 0
c[0,3,4] 0
c[0,3,5] 0
c[0,3,6] 0
c[0,3,7] 0
c[0,3,8] 0
c[0,3,9] 0
c[0,3,10] 0
c[0,3,11] 0
c[0,3,12] 0
c[0,3,13] 0
c[0,3,14] 0
c[0,3,15] 0
c[0,3,16] 0
c[0,3,17] 0
c[0,3,18] 0
c[0,3,19] 0
c[0,3,20] 0
c[0,3,21] 0
c[0,3,22] 0
c[0,3,23] 0
c[0,3,24] 1
c[1,0,0] 0
c[1,0,1] 0
c[1,0,2] 0
c[1,0,3] 0
c[1,0,4] 0
c[1,0,5] 0
c[1,0,6] 0
c[1,0,7] 0
c[1,0,8] 0
c[1,0,9] 0
c[1,0,10] 0
c[1,0,11] 0
c[1,0,12] 0
c[1,0,13] 0
c[1,0,14] 0
c[1,0,15] 0
c[1,0,16] 0
c[1,0,17] 0
c[1,0,18] 0
c[1,0,19] 0
c[1,0,20] 0
c[1,0,21] 0
c[1,0,22] 0
c[1,0,23] 0
c[1,0,24] 1
c[1,1,0] 0
c[1,1,1] 0
c[1,1,2] 0
c[1,1,3] 0
c[1,1,4] 0
c[1,1,5] 0
c[1,1,6] 0
c[1,1,7] 0
c[1,1,8] 0
c[1,1,9] 0
c[1,1,10] 0
c[1,1,11] 0
c[1,1,12] 0
c[1,1,13] 0
c[1,1,14] 0
c[1,1,15] 0
c[1,1,16] 0
c[1,1,17] 0
c[1,1,18] 0
c[1,1,19] 0
c[1,1,20] 0
c[1,1,21] 0
c[1,1,22] 0
c[1,1,23] 0
c[1,1,24] 1
c[1,2,0] 0
c[1,2,1] 0
c[1,2,2] 0
c[1,2,3] 0
c[1,2,4] 0
c[1,2,5] 0
c[1,2,6] 0
c[1,2,7] 0
c[1,2,8] 0
c[1,2,9] 0
c[1,2,10] 0
c[1,2,11] 0
c[1,2,12] 0
c[1,2,13] 0
c[1,2,14] 0
c[1,2,15] 0
c[1,2,16] 0
c[1,2,17] 0
c[1,2,18] 0
c[1,2,19] 0
c[1,2,20] 0
c[1,2,21] 0
c[1,2,22] 0
c[1,2,23] 0
c[1,2,24] 1
c[1,3,0] 0
c[1,3,1] 0
c[1,3,2] 0
c[1,3,3] 0
c[1,3,4] 0
c[1,3,5] 0
c[1,3,6] 0
c[1,3,7] 0
c[1,3,8] 0
c[1,3,9] 0
c[1,3,10] 0
c[1,3,11] 0
c[1,3,12] 0
c[1,3,13] 0
c[1,3,14] 0
c[1,3,15] 0
c[1,3,16] 0
c[1,3,17] 0
c[1,3,18] 0
c[1,3,19] 0
c[1,3,20] 0
c[1,3,21] 0
c[1,3,22] 0
c[1,3,23] 0
c[1,3,24] 1
c[2,0,0] 0
c[2,0,1] 0
c[2,0,2] 0
c[2,0,3] 0
c[2,0,4] 0
c[2,0,5] 0
c[2,0,6] 0
c[2,0,7] 0
c[2,0,8] 0
c[2,0,9] 0
c[2,0,10] 0
c[2,0,11] 0
c[2,0,12] 0
c[2,0,13] 0
c[2,0,14] 0
c[2,0,15] 0
c[2,0,16] 0
c[2,0,17] 0
c[2,0,18] 0
c[2,0,19] 0
c[2,0,20] 0
c[2,0,21] 0
c[2,0,22] 0
c[2,0,23] 0
c[2,0,24] 1
c[2,1,0] 0
c[2,1,1] 0
c[2,1,2] 0
c[2,1,3] 0
c[2,1,4] 0
c[2,1,5] 0
c[2,1,6] 0
c[2,1,7] 0
c[2,1,8] 0
c[2,1,9] 0
c[2,1,10] 0
c[2,1,11] 0
c[2,1,12] 0
c[2,1,13] 0
c[2,1,14] 0
c[2,1,15] 0
c[2,1,16] 0
c[2,1,17] 0
c[2,1,18] 0
c[2,1,19] 0
c[2,1,20] 0
c[2,1,21] 0
c[2,1,22] 0
c[2,1,23] 0
c[2,1,24] 1
c[2,2,0] 0
c[2,2,1] 0
c[2,2,2] 0
c[2,2,3] 0
c[2,2,4] 0
c[2,2,5] 0
c[2,2,6] 0
c[2,2,7] 0
c[2,2,8] 0
c[2,2,9] 0
c[2,2,10] 0
c[2,2,11] 0
c[2,2,12] 0
c[2,2,13] 0
c[2,2,14] 0
c[2,2,15] 0
c[2,2,16] 0
c[2,2,17] 0
c[2,2,18] 0
c[2,2,19] 0
c[2,2,20] 0
c[2,2,21] 0
c[2,2,22] 0
c[2,2,23] 0
c[2,2,24] 1
c[2,3,0] 0
c[2,3,1] 0
c[2,3,2] 0
c[2,3,3] 0
c[2,3,4] 0
c[2,3,5] 0
c[2,3,6] 0
c[2,3,7] 0
c[2,3,8] 0
c[2,3,9] 0
c[2,3,10] 0
c[2,3,11] 0
c[2,3,12] 0
c[2,3,13] 0
c[2,3,14] 0
c[2,3,15] 0
c[2,3,16] 0
c[2,3,17] 0
c[2,3,18] 0
c[2,3,19] 0
c[2,3,20] 0
c[2,3,21] 0
c[2,3,22] 0
c[2,3,23] 0
c[2,3,24] 1
c[3,0,0] 0
c[3,0,1] 0
c[3,0,2] 0
c[3,0,3] 0
c[3,0,4] 0
c[3,0,5] 0
c[3,0,6] 0
c[3,0,7] 0
c[3,0,8] 0
c[3,0,9] 0
c[3,0,10] 0
c[3,0,11] 0
c[3,0,12] 0
c[3,0,13] 0
c[3,0,14] 0
c[3,0,15] 0
c[3,0,16] 0
c[3,0,17] 0
c[3,0,18] 0
c[3,0,19] 0
c[3,0,20] 0
c[3,0,21] 0
c[3,0,22] 0
c[3,0,23] 0
c[3,0,24] 1
c[3,1,0] 0
c[3,1,1] 0
c[3,1,2] 0
c[3,1,3] 0
c[3,1,4] 0
c[3,1,5] 0
c[3,1,6] 0
c[3,1,7] 0
c[3,1,8] 0
c[3,1,9] 0
c[3,1,10] 0
c[3,1,11] 0
c[3,1,12] 0
c[3,1,13] 0
c[3,1,14] 0
c[3,1,15] 0
c[3,1,16] 0
c[3,1,17] 0
c[3,1,18] 0
c[3,1,19] 0
c[3,1,20] 0
c[3,1,21] 0
c[3,1,22] 0
c[3,1,23] 0
c[3,1,24] 1
c[3,2,0] 0
c[3,2,1] 0
c[3,2,2] 0
c[3,2,3] 0
c[3,2,4] 0
c[3,2,5] 0
c[3,2,6] 0
c[3,2,7] 0
c[3,2,8] 0
c[3,2,9] 0
c[3,2,10] 0
c[3,2,11] 0
c[3,2,12] 0
c[3,2,13] 0
c[3,2,14] 0
c[3,2,15] 0
c[3,2,16] 0
c[3,2,17] 0
c[3,2,18] 0
c[3,2,19] 0
c[3,2,20] 0
c[3,2,21] 0
c[3,2,22] 0
c[3,2,23] 0
c[3,2,24] 1
c[3,3,0] 0
c[3,3,1] 0
c[3,3,2] 0
c[3,3,3] 0
c[3,3,4] 0
c[3,3,5] 0
c[3,3,6] 0
c[3,3,7] 0
c[3,3,8] 0
c[3,3,9] 0
c[3,3,10] 0
c[3,3,11] 0
c[3,3,12] 0
c[3,3,13] 0
c[3,3,14] 0
c[3,3,15] 0
c[3,3,16] 0
c[3,3,17] 0
c[3,3,18] 0
c[3,3,19] 0
c[3,3,20] 0
c[3,3,21] 0
c[3,3,22] 0
c[3,3,23] 0
c[3,3,24] 1
b[0,0,0] 0
b[0,0,1] 0
b[0,0,2] 0
b[0,0,3] 0
b[0,0,4] 0
b[0,0,5] 0
b[0,0,6] 0
b[0,0,7] 0
b[0,0,8] 0
b[0,0,9] 0
b[0,0,10] 0
b[0,0,11] 0
b[0,0,12] 0
b[0,0,13] 0
b[0,0,14] 0
b[0,0,15] 0
b[0,0,16] 0
b[0,0,17] 0
b[0,0,18] 0
b[0,0,19] 0
b[0,0,20] 0
b[0,1,0] 0
b[0,1,1] 0
b[0,1,2] 0
b[0,1,3] 0
b[0,1,4] 0
b[0,1,5] 0
b[0,1,6] 0
b[0,1,7] 0
b[0,1,8] 0
b[0,1,9] 0
b[0,1,10] 0
b[0,1,11] 0
b[0,1,12] 0
b[0,1,13] 0
b[0,1,14] 0
b[0,1,15] 0
b[0,1,16] 0
b[0,1,17] 0
b[0,1,18] 0
b[0,1,19] 0
b[0,1,20] 0
b[0,2,0] 0
b[0,2,1] 0
b[0,2,2] 0
b[0,2,3] 0
b[0,2,4] 0
b[0,2,5] 0
b[0,2,6] 0
b[0,2,7] 0
b[0,2,8] 0
b[0,2,9] 0
b[0,2,10] 0
b[0,2,11] 0
b[0,2,12] 0
b[0,2,13] 0
b[0,2,14] 0
b[0,2,15] 0
b[0,2,16] 0
b[0,2,17] 0
b[0,2,18] 0
b[0,2,19] 0
b[0,2,20] 0
b[0,3,0] 0
b[0,3,1] 0
b[0,3,2] 0
b[0,3,3] 0
b[0,3,4] 0
b[0,3,5] 0
b[0,3,6] 0
b[0,3,7] 0
b[0,3,8] 0
b[0,3,9] 0
b[0,3,10] 0
b[0,3,11] 0
b[0,3,12] 0
b[0,3,13] 0
b[0,3,14] 0
b[0,3,15] 0
b[0,3,16] 0
b[0,3,17] 0
b[0,3,18] 0
b[0,3,19] 0
b[0,3,20] 0
b[1,0,0] 0
b[1,0,1] 0
b[1,0,2] 0
b[1,0,3] 0
b[1,0,4] 0
b[1,0,5] 0
b[1,0,6] 0
b[1,0,7] 0
b[1,0,8] 0
b[1,0,9] 0
b[1,0,10] 0
b[1,0,11] 0
b[1,0,12] 0
b[1,0,13] 0
b[1,0,14] 0
b[1,0,15] 0
b[1,0,16] 0
b[1,0,17] 0
b[1,0,18] 0
b[1,0,19] 0
b[1,0,20] 0
b[1,1,0] 0
b[1,1,1] 0
b[1,1,2] 0
b[1,1,3] 0
b[1,1,4] 0
b[1,1,5] 0
b[1,1,6] 0
b[1,1,7] 0
b[1,1,8] 0
b[1,1,9] 0
b[1,1,10] 0
b[1,1,11] 0
b[1,1,12] 0
b[1,1,13] 0
b[1,1,14] 0
b[1,1,15] 0
b[1,1,16] 0
b[1,1,17] 0
b[1,1,18] 0
b[1,1,19] 0
b[1,1,20] 0
b[1,2,0] 0
b[1,2,1] 0
b[1,2,2] 0
b[1,2,3] 0
b[1,2,4] 0
b[1,2,5] 0
b[1,2,6] 0
b[1,2,7] 0
b[1,2,8] 0
b[1,2,9] 0
b[1,2,10] 0
b[1,2,11] 0
b[1,2,12] 0
b[1,2,13] 0
b[1,2,14] 0
b[1,2,15] 0
b[1,2,16] 0
b[1,2,17] 0
b[1,2,18] 0
b[1,2,19] 0
b[1,2,20] 0
b[1,3,0] 0
b[1,3,1] 0
b[1,3,2] 0
b[1,3,3] 0
b[1,3,4] 0
b[1,3,5] 0
b[1,3,6] 0
b[1,3,7] 0
b[1,3,8] 0
b[1,3,9] 0
b[1,3,10] 0
b[1,3,11] 0
b[1,3,12] 0
b[1,3,13] 0
b[1,3,14] 0
b[1,3,15] 0
b[1,3,16] 0
b[1,3,17] 0
b[1,3,18] 0
b[1,3,19] 0
b[1,3,20] 0
b[2,0,0] 0
b[2,0,1] 0
b[2,0,2] 0
b[2,0,3] 0
b[2,0,4] 0
b[2,0,5] 0
b[2,0,6] 0
b[2,0,7] 0
b[2,0,8] 0
b[2,0,9] 0
b[2,0,10] 0
b[2,0,11] 0
b[2,0,12] 0
b[2,0,13] 0
b[2,0,14] 0
b[2,0,15] 0
b[2,0,16] 0
b[2,0,17] 0
b[2,0,18] 0
b[2,0,19] 0
b[2,0,20] 0
b[2,1,0] 0
b[2,1,1] 0
b[2,1,2] 0
b[2,1,3] 0
b[2,1,4] 0
b[2,1,5] 0
b[2,1,6] 0
b[2,1,7] 0
b[2,1,8] 0
b[2,1,9] 0
b[2,1,10] 0
b[2,1,11] 0
b[2,1,12] 0
b[2,1,13] 0
b[2,1,14] 0
b[2,1,15] 0
b[2,1,16] 0
b[2,1,17] 0
b[2,1,18] 0
b[2,1,19] 0
b[2,1,20] 0
b[2,2,0] 0
b[2,2,1] 0
b[2,2,2] 0
b[2,2,3] 0
b[2,2,4] 0
b[2,2,5] 0
b[2,2,6] 0
b[2,2,7] 0
b[2,2,8] 0
b[2,2,9] 0
b[2,2,10] 0
b[2,2,11] 0
b[2,2,12] 0
b[2,2,13] 0
b[2,2,14] 0
b[2,2,15] 0
b[2,2,16] 0
b[2,2,17] 0
b[2,2,18] 0
b[2,2,19] 0
b[2,2,20] 0
b[2,3,0] 0
b[2,3,1] 0
b[2,3,2] 0
b[2,3,3] 0
b[2,3,4] 0
b[2,3,5] 0
b[2,3,6] 0
b[2,3,7] 0
b[2,3,8] 0
b[2,3,9] 0
b[2,3,10] 0
b[2,3,11] 0
b[2,3,12] 0
b[2,3,13] 0
b[2,3,14] 0
b[2,3,15] 0
b[2,3,16] 0
b[2,3,17] 0
b[2,3,18] 0
b[2,3,19] 0
b[2,3,20] 0
b[3,0,0] 0
b[3,0,1] 0
b[3,0,2] 0
b[3,0,3] 0
b[3,0,4] 0
b[3,0,5] 0
b[3,0,6] 0
b[3,0,7] 0
b[3,0,8] 0
b[3,0,9] 0
b[3,0,10] 0
b[3,0,11] 0
b[3,0,12] 0
b[3,0,13] 0
b[3,0,14] 0
b[3,0,15] 0
b[3,0,16] 0
b[3,0,17] 0
b[3,0,18] 0
b[3,0,19] 0
b[3,0,20] 0
b[3,1,0] 0
b[3,1,1] 0
b[3,1,2] 0
b[3,1,3] 0
b[3,1,4] 0
b[3,1,5] 0
b[3,1,6] 0
b[3,1,7] 0
b[3,1,8] 0
b[3,1,9] 0
b[3,1,10] 0
b[3,1,11] 0
b[3,1,12] 0
b[3,1,13] 0
b[3,1,14] 0
b[3,1,15] 0
b[3,1,16] 0
b[3,1,17] 0
b[3,1,18] 0
b[3,1,19] 0
b[3,1,20] 0
b[3,2,0] 0
b[3,2,1] 0
b[3,2,2] 0
b[3,2,3] 0
b[3,2,4] 0
b[3,2,5] 0
b[3,2,6] 0
b[3,2,7] 0
b[3,2,8] 0
b[3,2,9] 0
b[3,2,10] 0
b[3,2,11] 0
b[3,2,12] 0
b[3,2,13] 0
b[3,2,14] 0
b[3,2,15] 0
b[3,2,16] 0
b[3,2,17] 0
b[3,2,18] 0
b[3,2,19] 0
b[3,2,20] 0
b[3,3,0] 0
b[3,3,1] 0
b[3,3,2] 0
b[3,3,3] 0
b[3,3,4] 0
b[3,3,5] 0
b[3,3,6] 0
b[3,3,7] 0
b[3,3,8] 0
b[3,3,9] 0
b[3,3,10] 0
b[3,3,11] 0
b[3,3,12] 0
b[3,3,13] 0
b[3,3,14] 0
b[3,3,15] 0
b[3,3,16] 0
b[3,3,17] 0
b[3,3,18] 0
b[3,3,19] 0
b[3,3,20] 0
sp[0,0] 0.25
sp[0,1] 0.25
sp[0,2] 0.25
sp[0,3] 0.25
sp[1,0] 0.25
sp[1,1] 0.25
sp[1,2] 0.25
sp[1,3] 0.25
sp[2,0] 0.25
sp[2,1] 0.25
sp[2,2] 0.25
sp[2,3] 0.25
sp[3,0] 0.25
sp[3,1] 0.25
sp[3,2] 0.25
sp[3,3] 0.25
d_plus[0] 4
d_plus[1] 4
d_plus[2] 4
d_plus[3] 4
p[0,0] 24
p[0,1] 24
p[0,2] 24
p[0,3] 24
p[1,0] 24
p[1,1] 24
p[1,2] 24
p[1,3] 24
p[2,0] 24
p[2,1] 24
p[2,2] 24
p[2,3] 24
p[3,0] 24
p[3,1] 24
p[3,2] 24
p[3,3] 24
t[0,0] 0.25
t[0,1] 0.25
t[0,2] 0.25
t[0,3] 0.25
t[1,0] 0.25
t[1,1] 0.25
t[1,2] 0.25
t[1,3] 0.25
t[2,0] 0.25
t[2,1] 0.25
t[2,2] 0.25
t[2,3] 0.25
t[3,0] 0.25
t[3,1] 0.25
t[3,2] 0.25
t[3,3] 0.25
h_prime[0,0] 0
h_prime[0,1] 0
h_prime[0,2] 0
h_prime[0,3] 0
h_prime[0,4] 0
h_prime[0,5] 0
h_prime[0,6] 1.4120589569221006e-01
h_prime[0,7] 8.2162640988836755e-01
h_prime[0,8] 8.4646784327934255e-01
h_prime[0,9] 5.5284084379683007e-01
h_prime[0,10] 0
h_prime[0,11] 0
h_prime[0,12] 6.7778455466042031e-01
h_prime[0,13] 0
h_prime[0,14] 0
h_prime[0,15] 0
h_prime[0,16] 2.1166819054643379e-01
h_prime[0,17] 0
h_prime[0,18] 0
h_prime[0,19] 0
h_prime[0,20] 0
h_prime[0,21] 0
h_prime[0,22] 2.7112853154550060e-01
h_prime[0,23] 0
h_prime[0,24] 2.6323278993378146e-01
h_prime[0,25] 0
h_prime[0,26] 4.5243024081001743e-01
h_prime[0,27] 0
h_prime[0,28] 4.0400486113513573e-01
h_prime[0,29] 0
h_prime[0,30] 0
h_prime[0,31] 0
h_prime[1,0] 0
h_prime[1,1] 0
h_prime[1,2] 0
h_prime[1,3] 0
h_prime[1,4] 0
h_prime[1,5] 0
h_prime[1,6] 1.4120589569221006e-01
h_prime[1,7] 8.2162640988836755e-01
h_prime[1,8] 8.4646784327934255e-01
h_prime[1,9] 5.5284084379683007e-01
h_prime[1,10] 0
h_prime[1,11] 0
h_prime[1,12] 6.7778455466042031e-01
h_prime[1,13] 0
h_prime[1,14] 0
h_prime[1,15] 0
h_prime[1,16] 2.1166819054643379e-01
h_prime[1,17] 0
h_prime[1,18] 0
h_prime[1,19] 0
h_prime[1,20] 0
h_prime[1,21] 0
h_prime[1,22] 2.7112853154550060e-01
h_prime[1,23] 0
h_prime[1,24] 2.6323278993378146e-01
h_prime[1,25] 0
h_prime[1,26] 4.5243024081001743e-01
h_prime[1,27] 0
h_prime[1,28] 4.0400486113513573e-01
h_prime[1,29] 0
h_prime[1,30] 0
h_prime[1,31] 0
h_prime[2,0] 0
h_prime[2,1] 0
h_prime[2,2] 0
h_prime[2,3] 0
h_prime[2,4] 0
h_prime[2,5] 0
h_prime[2,6] 1.4120589569221006e-01
h_prime[2,7] 8.2162640988836755e-01
h_prime[2,8] 8.4646784327934255e-01
h_prime[2,9] 5.5284084379683007e-01
h_prime[2,10] 0
h_prime[2,11] 0
h_prime[2,12] 6.7778455466042031e-01
h_prime[2,13] 0
h_prime[2,14] 0
h_prime[2,15] 0
h_prime[2,16] 2.1166819054643379e-01
h_prime[2,17] 0
h_prime[2,18] 0
h_prime[2,19] 0
h_prime[2,20] 0
h_prime[2,21] 0
h_prime[2,22] 2.7112853154550060e-01
h_prime[2,23] 0
h_prime[2,24] 2.6323278993378146e-01
h_prime[2,25] 0
h_prime[2,26] 4.5243024081001743e-01
h_prime[2,27] 0
h_prime[2,28] 4.0400486113513573e-01
h_prime[2,29] 0
h_prime[2,30] 0
h_prime[2,31] 0
h_prime[3,0] 0
h_prime[3,1] 0
h_prime[3,2] 0
h_prime[3,3] 0
h_prime[3,4] 0
h_prime[3,5] 0
h_prime[3,6] 1.4120589569221006e-01
h_prime[3,7] 8.2162640988836755e-01
h_prime[3,8] 8.4646784327934255e-01
h_prime[3,9] 5.5284084379683007e-01
h_prime[3,10] 0
h_prime[3,11] 0
h_prime[3,12] 6.7778455466042031e-01
h_prime[3,13] 0
h_prime[3,14] 0
h_prime[3,15] 0
h_prime[3,16] 2.1166819054643379e-01
h_prime[3,17] 0
h_prime[3,18] 0
h_prime[3,19] 0
h_prime[3,20] 0
h_prime[3,21] 0
h_prime[3,22] 2.7112853154550060e-01
h_prime[3,23] 0
h_prime[3,24] 2.6323278993378146e-01
h_prime[3,25] 0
h_prime[3,26] 4.5243024081001743e-01
h_prime[3,27] 0
h_prime[3,28] 4.0400486113513573e-01
h_prime[3,29] 0
h_prime[3,30] 0
h_prime[3,31] 0
x_0_0_0_100 0
s_0_0_0_100 1.9214194267998205e-01
z_0_0_0_100 0
x_0_0_1_100 0
s_0_0_1_100 3.2486635074029430e-01
z_0_0_1_100 0
x_0_0_2_100 0
s_0_0_2_100 7.4581732229589720e-02
z_0_0_2_100 0
x_0_0_3_100 0
s_0_0_3_100 3.2679490279416307e-01
z_0_0_3_100 0
x_0_0_4_100 0
s_0_0_4_100 1.7646677047024237e-01
z_0_0_4_100 0
x_0_0_5_100 0
s_0_0_5_100 2.1683641523132788e-01
z_0_0_5_100 0
x_0_0_6_100 0
s_0_0_6_100 0
z_0_0_6_100 1
x_0_0_7_100 0
s_0_0_7_100 0
z_0_0_7_100 1
x_0_0_8_100 0
s_0_0_8_100 0
z_0_0_8_100 1
x_0_0_9_100 0
s_0_0_9_100 0
z_0_0_9_100 1
x_0_0_10_100 0
s_0_0_10_100 2.1413853764543997e-01
z_0_0_10_100 0
x_0_0_11_100 0
s_0_0_11_100 8.9892853051434030e-01
z_0_0_11_100 0
x_0_0_12_100 0
s_0_0_12_100 0
z_0_0_12_100 1
x_0_0_13_100 0
s_0_0_13_100 6.5985754504809846e-01
z_0_0_13_100 0
x_0_0_14_100 0
s_0_0_14_100 3.9015945792208179e-01
z_0_0_14_100 0
x_0_0_15_100 0
s_0_0_15_100 2.3863112553964125e-01
z_0_0_15_100 0
x_0_0_16_100 0
s_0_0_16_100 0
z_0_0_16_100 1
x_0_0_17_100 0
s_0_0_17_100 2.7294353581974967e-01
z_0_0_17_100 0
x_0_0_18_100 0
s_0_0_18_100 1.1789869703362452e-01
z_0_0_18_100 0
x_0_0_19_100 0
s_0_0_19_100 1.4988216059292422e-01
z_0_0_19_100 0
x_0_0_20_100 0
s_0_0_20_100 7.7013888629253374e-02
z_0_0_20_100 0
x_0_0_21_100 0
s_0_0_21_100 7.1428849548111428e-01
z_0_0_21_100 0
x_0_0_22_100 0
s_0_0_22_100 0
z_0_0_22_100 1
x_0_0_23_100 0
s_0_0_23_100 3.4037800505767329e-01
z_0_0_23_100 0
x_0_0_24_100 0
s_0_0_24_100 0
z_0_0_24_100 1
x_0_0_25_100 0
s_0_0_25_100 0.822041591629486
z_0_0_25_100 0
x_0_0_26_100 0
s_0_0_26_100 0
z_0_0_26_100 1
x_0_0_27_100 0
s_0_0_27_100 2.8400276321927770e-01
z_0_0_27_100 0
x_0_0_28_100 0
s_0_0_28_100 0
z_0_0_28_100 1
x_0_0_29_100 0
s_0_0_29_100 2.1612649410973059e-01
z_0_0_29_100 0
x_0_0_30_100 0
s_0_0_30_100 4.5387764647613033e-01
z_0_0_30_100 0
x_0_0_31_100 0
s_0_0_31_100 2.2893663123260008e-01
z_0_0_31_100 0
x_0_1_0_100 0
s_0_1_0_100 1.9214194267998205e-01
z_0_1_0_100 0
x_0_1_1_100 0
s_0_1_1_100 3.2486635074029430e-01
z_0_1_1_100 0
x_0_1_2_100 0
s_0_1_2_100 7.4581732229589720e-02
z_0_1_2_100 0
x_0_1_3_100 0
s_0_1_3_100 3.2679490279416307e-01
z_0_1_3_100 0
x_0_1_4_100 0
s_0_1_4_100 1.7646677047024237e-01
z_0_1_4_100 0
x_0_1_5_100 0
s_0_1_5_100 2.1683641523132788e-01
z_0_1_5_100 0
x_0_1_6_100 0
s_0_1_6_100 0
z_0_1_6_100 1
x_0_1_7_100 0
s_0_1_7_100 0
z_0_1_7_100 1
x_0_1_8_100 0
s_0_1_8_100 0
z_0_1_8_100 1
x_0_1_9_100 0
s_0_1_9_100 0
z_0_1_9_100 1
x_0_1_10_100 0
s_0_1_10_100 2.1413853764543997e-01
z_0_1_10_100 0
x_0_1_11_100 0
s_0_1_11_100 8.9892853051434030e-01
z_0_1_11_100 0
x_0_1_12_100 0
s_0_1_12_100 0
z_0_1_12_100 1
x_0_1_13_100 0
s_0_1_13_100 6.5985754504809846e-01
z_0_1_13_100 0
x_0_1_14_100 0
s_0_1_14_100 3.9015945792208179e-01
z_0_1_14_100 0
x_0_1_15_100 0
s_0_1_15_100 2.3863112553964125e-01
z_0_1_15_100 0
x_0_1_16_100 0
s_0_1_16_100 0
z_0_1_16_100 1
x_0_1_17_100 0
s_0_1_17_100 2.7294353581974967e-01
z_0_1_17_100 0
x_0_1_18_100 0
s_0_1_18_100 1.1789869703362452e-01
z_0_1_18_100 0
x_0_1_19_100 0
s_0_1_19_100 1.4988216059292422e-01
z_0_1_19_100 0
x_0_1_20_100 0
s_0_1_20_100 7.7013888629253374e-02
z_0_1_20_100 0
x_0_1_21_100 0
s_0_1_21_100 7.1428849548111428e-01
z_0_1_21_100 0
x_0_1_22_100 0
s_0_1_22_100 0
z_0_1_22_100 1
x_0_1_23_100 0
s_0_1_23_100 3.4037800505767329e-01
z_0_1_23_100 0
x_0_1_24_100 0
s_0_1_24_100 0
z_0_1_24_100 1
x_0_1_25_100 0
s_0_1_25_100 0.822041591629486
z_0_1_25_100 0
x_0_1_26_100 0
s_0_1_26_100 0
z_0_1_26_100 1
x_0_1_27_100 0
s_0_1_27_100 2.8400276321927770e-01
z_0_1_27_100 0
x_0_1_28_100 0
s_0_1_28_100 0
z_0_1_28_100 1
x_0_1_29_100 0
s_0_1_29_100 2.1612649410973059e-01
z_0_1_29_100 0
x_0_1_30_100 0
s_0_1_30_100 4.5387764647613033e-01
z_0_1_30_100 0
x_0_1_31_100 0
s_0_1_31_100 2.2893663123260008e-01
z_0_1_31_100 0
x_0_2_0_100 0
s_0_2_0_100 1.9214194267998205e-01
z_0_2_0_100 0
x_0_2_1_100 0
s_0_2_1_100 3.2486635074029430e-01
z_0_2_1_100 0
x_0_2_2_100 0
s_0_2_2_100 7.4581732229589720e-02
z_0_2_2_100 0
x_0_2_3_100 0
s_0_2_3_100 3.2679490279416307e-01
z_0_2_3_100 0
x_0_2_4_100 0
s_0_2_4_100 1.7646677047024237e-01
z_0_2_4_100 0
x_0_2_5_100 0
s_0_2_5_100 2.1683641523132788e-01
z_0_2_5_100 0
x_0_2_6_100 0
s_0_2_6_100 0
z_0_2_6_100 1
x_0_2_7_100 0
s_0_2_7_100 0
z_0_2_7_100 1
x_0_2_8_100 0
s_0_2_8_100 0
z_0_2_8_100 1
x_0_2_9_100 0
s_0_2_9_100 0
z_0_2_9_100 1
x_0_2_10_100 0
s_0_2_10_100 2.1413853764543997e-01
z_0_2_10_100 0
x_0_2_11_100 0
s_0_2_11_100 8.9892853051434030e-01
z_0_2_11_100 0
x_0_2_12_100 0
s_0_2_12_100 0
z_0_2_12_100 1
x_0_2_13_100 0
s_0_2_13_100 6.5985754504809846e-01
z_0_2_13_100 0
x_0_2_14_100 0
s_0_2_14_100 3.9015945792208179e-01
z_0_2_14_100 0
x_0_2_15_100 0
s_0_2_15_100 2.3863112553964125e-01
z_0_2_15_100 0
x_0_2_16_100 0
s_0_2_16_100 0
z_0_2_16_100 1
x_0_2_17_100 0
s_0_2_17_100 2.7294353581974967e-01
z_0_2_17_100 0
x_0_2_18_100 0
s_0_2_18_100 1.1789869703362452e-01
z_0_2_18_100 0
x_0_2_19_100 0
s_0_2_19_100 1.4988216059292422e-01
z_0_2_19_100 0
x_0_2_20_100 0
s_0_2_20_100 7.7013888629253374e-02
z_0_2_20_100 0
x_0_2_21_100 0
s_0_2_21_100 7.1428849548111428e-01
z_0_2_21_100 0
x_0_2_22_100 0
s_0_2_22_100 0
z_0_2_22_100 1
x_0_2_23_100 0
s_0_2_23_100 3.4037800505767329e-01
z_0_2_23_100 0
x_0_2_24_100 0
s_0_2_24_100 0
z_0_2_24_100 1
x_0_2_25_100 0
s_0_2_25_100 0.822041591629486
z_0_2_25_100 0
x_0_2_26_100 0
s_0_2_26_100 0
z_0_2_26_100 1
x_0_2_27_100 0
s_0_2_27_100 2.8400276321927770e-01
z_0_2_27_100 0
x_0_2_28_100 0
s_0_2_28_100 0
z_0_2_28_100 1
x_0_2_29_100 0
s_0_2_29_100 2.1612649410973059e-01
z_0_2_29_100 0
x_0_2_30_100 0
s_0_2_30_100 4.5387764647613033e-01
z_0_2_30_100 0
x_0_2_31_100 0
s_0_2_31_100 2.2893663123260008e-01
z_0_2_31_100 0
x_0_3_0_100 0
s_0_3_0_100 1.9214194267998205e-01
z_0_3_0_100 0
x_0_3_1_100 0
s_0_3_1_100 3.2486635074029430e-01
z_0_3_1_100 0
x_0_3_2_100 0
s_0_3_2_100 7.4581732229589720e-02
z_0_3_2_100 0
x_0_3_3_100 0
s_0_3_3_100 3.2679490279416307e-01
z_0_3_3_100 0
x_0_3_4_100 0
s_0_3_4_100 1.7646677047024237e-01
z_0_3_4_100 0
x_0_3_5_100 0
s_0_3_5_100 2.1683641523132788e-01
z_0_3_5_100 0
x_0_3_6_100 0
s_0_3_6_100 0
z_0_3_6_100 1
x_0_3_7_100 0
s_0_3_7_100 0
z_0_3_7_100 1
x_0_3_8_100 0
s_0_3_8_100 0
z_0_3_8_100 1
x_0_3_9_100 0
s_0_3_9_100 0
z_0_3_9_100 1
x_0_3_10_100 0
s_0_3_10_100 2.1413853764543997e-01
z_0_3_10_100 0
x_0_3_11_100 0
s_0_3_11_100 8.9892853051434030e-01
z_0_3_11_100 0
x_0_3_12_100 0
s_0_3_12_100 0
z_0_3_12_100 1
x_0_3_13_100 0
s_0_3_13_100 6.5985754504809846e-01
z_0_3_13_100 0
x_0_3_14_100 0
s_0_3_14_100 3.9015945792208179e-01
z_0_3_14_100 0
x_0_3_15_100 0
s_0_3_15_100 2.3863112553964125e-01
z_0_3_15_100 0
x_0_3_16_100 0
s_0_3_16_100 0
z_0_3_16_100 1
x_0_3_17_100 0
s_0_3_17_100 2.7294353581974967e-01
z_0_3_17_100 0
x_0_3_18_100 0
s_0_3_18_100 1.1789869703362452e-01
z_0_3_18_100 0
x_0_3_19_100 0
s_0_3_19_100 1.4988216059292422e-01
z_0_3_19_100 0
x_0_3_20_100 0
s_0_3_20_100 7.7013888629253374e-02
z_0_3_20_100 0
x_0_3_21_100 0
s_0_3_21_100 7.1428849548111428e-01
z_0_3_21_100 0
x_0_3_22_100 0
s_0_3_22_100 0
z_0_3_22_100 1
x_0_3_23_100 0
s_0_3_23_100 3.4037800505767329e-01
z_0_3_23_100 0
x_0_3_24_100 0
s_0_3_24_100 0
z_0_3_24_100 1
x_0_3_25_100 0
s_0_3_25_100 0.822041591629486
z_0_3_25_100 0
x_0_3_26_100 0
s_0_3_26_100 0
z_0_3_26_100 1
x_0_3_27_100 0
s_0_3_27_100 2.8400276321927770e-01
z_0_3_27_100 0
x_0_3_28_100 0
s_0_3_28_100 0
z_0_3_28_100 1
x_0_3_29_100 0
s_0_3_29_100 2.1612649410973059e-01
z_0_3_29_100 0
x_0_3_30_100 0
s_0_3_30_100 4.5387764647613033e-01
z_0_3_30_100 0
x_0_3_31_100 0
s_0_3_31_100 2.2893663123260008e-01
z_0_3_31_100 0
h[0] 0
h[1] 0
h[2] 0
h[3] 0
h[4] 0
h[5] 0
h[6] 0.564823582768641
h[7] 3.2865056395531709e+00
h[8] 3.3858713731170709e+00
h[9] 2.2113633751870205e+00
h[10] 0
h[11] 0
h[12] 2.7111382186414814e+00
h[13] 0
h[14] 0
h[15] 0
h[16] 8.4667276218543552e-01
h[17] 0
h[18] 0
h[19] 0
h[20] 0
h[21] 0
h[22] 1.0845141261817033e+00
h[23] 0
h[24] 1.0529311597348268e+00
h[25] 0
h[26] 1.8097209632397693e+00
h[27] 0
h[28] 1.6160194445403415e+00
h[29] 0
h[30] 0
h[31] 0
y 1.7057547844443630e+00
x_1_0_0 1.1570121744463360e+00
s_1_0_0 0
z_1_0_0 1
x_1_1_0 0
s_1_1_0 1.5523125722864120e+00
z_1_1_0 0
x_1_2_0 2.2644323580360637e+00
s_1_2_0 0
z_1_2_0 1
x_1_3_0 0
s_1_3_0 2.0626036367305955e+00
z_1_3_0 0
x_1_4_0 0
s_1_4_0 9.3812983150643769e-01
z_1_4_0 0
x_1_5_0 0
s_1_5_0 1.8409992962377458e-01
z_1_5_0 0
x_1_6_0 0
s_1_6_0 1.0545331190674478e+00
z_1_6_0 0
x_1_7_0 2.3176159750885241e-02
s_1_7_0 0
z_1_7_0 1
x_1_8_0 1.7458438491730361e+00
s_1_8_0 0
z_1_8_0 1
x_1_9_0 1.5899764294591268e+00
s_1_9_0 0
z_1_9_0 1
x_1_10_0 1.6235786140035384e+00
s_1_10_0 0
z_1_10_0 1
x_1_11_0 0
s_1_11_0 4.3812615162872265e-01
z_1_11_0 0
x_1_12_0 5.0353473190243370e-01
s_1_12_0 0
z_1_12_0 1
x_1_13_0 3.0307151157577903e+00
s_1_13_0 0
z_1_13_0 1
x_1_14_0 0
s_1_14_0 2.5608214449626426e-01
z_1_14_0 0
x_1_15_0 0
s_1_15_0 4.0213182407104303e-01
z_1_15_0 0
